************************************************************************
file with basedata            : cn119_.bas
initial value random generator: 1921910546
************************************************************************
projects                      :  1
jobs (incl. supersource/sink ):  18
horizon                       :  125
RESOURCES
  - renewable                 :  2   R
  - nonrenewable              :  1   N
  - doubly constrained        :  0   D
************************************************************************
PROJECT INFORMATION:
pronr.  #jobs rel.date duedate tardcost  MPM-Time
    1     16      0       12        5       12
************************************************************************
PRECEDENCE RELATIONS:
jobnr.    #modes  #successors   successors
   1        1          3           2   3   4
   2        3          3           8  12  13
   3        3          2           5   7
   4        3          2           6  14
   5        3          3           9  10  11
   6        3          3           7  12  16
   7        3          1          15
   8        3          2          10  17
   9        3          3          13  14  16
  10        3          2          15  16
  11        3          3          12  13  14
  12        3          1          17
  13        3          1          15
  14        3          1          17
  15        3          1          18
  16        3          1          18
  17        3          1          18
  18        1          0        
************************************************************************
REQUESTS/DURATIONS:
jobnr. mode duration  R 1  R 2  N 1
------------------------------------------------------------------------
  1      1     0       0    0    0
  2      1     3       4    0    5
         2     7       0    6    4
         3    10       3    0    0
  3      1     1       5    0    6
         2     3       0    4    0
         3     9       4    0    5
  4      1     2       0    7    7
         2     3       0    6    6
         3     8       0    5    0
  5      1     2       9    0    0
         2     3       0    3    6
         3     6       5    0    6
  6      1     6       0    5    0
         2     7       9    0    2
         3     7       0    3    2
  7      1     1       0    8    0
         2     3       9    0    0
         3     9       6    0    4
  8      1     4       0    6    7
         2     5       1    0    0
         3     7       0    3    0
  9      1     1       0    3    0
         2     5       0    2    6
         3     8       4    0    6
 10      1     1       7    0    0
         2     2       0    5    2
         3     6       0    2    0
 11      1     2       0    8    7
         2     8       0    4    6
         3    10       4    0    0
 12      1     2       0    5    3
         2     6       7    0    2
         3    10       0    5    0
 13      1     4       0    8   10
         2     6       7    0    0
         3     7       0    7   10
 14      1     3       0    4    0
         2     5       0    3    0
         3     9       0    1    0
 15      1     2       0    6    0
         2     7       7    0    0
         3     9       0    5    0
 16      1     2       0    9    3
         2     3       3    0    0
         3     4       2    0    3
 17      1     2       0   10    7
         2     5       0    8    0
         3     6       0    5    0
 18      1     0       0    0    0
************************************************************************
RESOURCEAVAILABILITIES:
  R 1  R 2  N 1
   18   25   56
************************************************************************
